O La Co
1.10
        5.4094872475         0.0000000000         0.0000000000
        2.6558577648         4.7126395803         0.0000000000
        5.3117155295         3.1036739043         8.8996121012
   Co   La   O
    4    4   12
Direct
     0.000000000         0.000000000         0.000000000
    -0.000000007        -0.000000009         0.500000018
     0.499999988         0.500000020         0.250000009
     0.499999849         0.500000011         0.750000027
     0.249999994         0.250000010         0.125000005
     0.250000031         0.250000001         0.625000023
     0.749999982         0.750000030         0.375000014
     0.750000019         0.750000021         0.875000032
     0.750000039         0.304768201         0.097615908
     0.750000010         0.304768214         0.597615893
     0.695231689         0.804768257         0.125000005
     0.695231726         0.804768248         0.625000023
     0.195231772         0.750000061         0.152384108
     0.195231797         0.749999934         0.652384153
     0.804768248         0.249999978         0.347615911
     0.804768102         0.250000038         0.847615902
     0.304768199         0.195231783         0.375000014
     0.304768236         0.195231774         0.875000032
     0.250000021         0.695231834         0.402384117
     0.250000037         0.695231742         0.902384108
