Zr4 Ti4 O16
1.07
   4.8530189999999997    0.0000000000000000    0.0000000000000000
  -0.0092759999999999    5.6644309999999995    0.0000000000000000
  -0.3074730000000009   -0.0598519999999970   10.1859070000000003
Zr Ti O
4 4 16
direct
   0.0040780000000000    0.6995890000000000    0.8736290000000000 Zr4+
   0.9920050000000000    0.2999800000000000    0.1179600000000000 Zr4+
   0.9983580000000000    0.6943130000000000    0.3767230000000000 Zr4+
   0.4915740000000000    0.1874990000000000    0.3828210000000000 Zr4+
   0.9994800000000000    0.3084920000000000    0.6303960000000000 Ti4+
   0.4999670000000000    0.1785080000000000    0.8696070000000000 Ti4+
   0.5012640000000000    0.8230360000000000    0.1236890000000000 Ti4+
   0.5031560000000000    0.8096060000000000    0.6270870000000000 Ti4+
   0.2347570000000000    0.6159400000000000    0.0442840000000000 O2-
   0.2493940000000000    0.6062810000000000    0.5458390000000000 O2-
   0.2106880000000000    0.3993870000000000    0.2888660000000000 O2-
   0.2323590000000000    0.3777630000000000    0.7893430000000000 O2-
   0.3072550000000000    0.8891050000000000    0.7837990000000000 O2-
   0.2690490000000000    0.8993700000000000    0.2743240000000000 O2-
   0.2446230000000000    0.1027840000000000    0.5446150000000000 O2-
   0.2854320000000000    0.1068530000000000    0.0236130000000000 O2-
   0.7010270000000000    0.8851140000000000    0.4712570000000000 O2-
   0.7288249999999999    0.9045800000000001    0.9720270000000000 O2-
   0.7439640000000000    0.1156890000000000    0.7145420000000000 O2-
   0.7248480000000000    0.0944530000000000    0.2190460000000000 O2-
   0.7458020000000000    0.6081860000000000    0.2060960000000000 O2-
   0.7964620000000000    0.3877080000000000    0.4699840000000000 O2-
   0.7604610000000001    0.3920760000000000    0.9483560000000000 O2-
   0.7751720000000000    0.6136850000000000    0.7020980000000000 O2-
